c description: Random 3-CNF over 20 variables and 85 clauses
c generator: CNFgen (0.9.2)
c copyright: (C) 2012-2022 Massimo Lauria <massimo.lauria@uniroma1.it>
c url: https://massimolauria.net/cnfgen
c command line: cnfgen --output CNF_4.28/20_bit_85_930.cnf randkcnf 3 20 85
c
p cnf 20 85
-3 8 15 0
-9 -10 -15 0
11 18 -19 0
8 -17 19 0
-8 10 12 0
4 14 -19 0
2 -12 -20 0
-1 -2 -3 0
-8 14 17 0
-5 11 12 0
8 -11 20 0
-5 8 12 0
-9 -11 -19 0
2 -3 7 0
-16 -17 19 0
-13 -15 19 0
1 8 15 0
-3 4 12 0
2 -6 -11 0
-3 -4 -16 0
-7 -8 17 0
3 -9 -16 0
10 -15 -16 0
3 8 11 0
-9 -16 -19 0
2 3 -5 0
-5 -10 -17 0
-4 -5 20 0
13 -17 -19 0
8 16 -17 0
-4 -13 -20 0
1 11 12 0
3 -8 -20 0
1 6 16 0
8 -11 -18 0
-9 11 -19 0
2 4 14 0
-5 -6 8 0
3 18 19 0
6 -8 -18 0
-4 -5 9 0
-5 -12 -19 0
5 9 12 0
-1 -17 20 0
13 18 -20 0
17 -18 20 0
-7 10 -11 0
-2 3 10 0
-2 -8 -15 0
-6 9 16 0
-8 9 10 0
1 -3 -4 0
2 9 12 0
3 14 18 0
4 -15 19 0
13 -16 19 0
4 -13 -19 0
-2 14 16 0
3 8 -14 0
-14 -19 20 0
-16 -17 18 0
2 -16 -17 0
6 -8 9 0
-1 9 -12 0
-6 13 -14 0
-4 11 -16 0
-12 15 19 0
9 11 -15 0
9 10 -17 0
-5 -11 18 0
5 -11 -12 0
-12 -13 18 0
-3 -11 12 0
-1 6 -13 0
3 10 19 0
-1 -2 -18 0
4 -11 12 0
-7 -15 17 0
2 -7 -20 0
6 -9 12 0
-5 -13 -16 0
-7 -12 16 0
-3 -12 -18 0
-9 -17 18 0
-5 12 -14 0
